c File: instances/20_0.15_2.col
c
c Description: Random graph of size 20 vertices and P(0.15000000000000002) of edges between any two vertices.
p col 20 190
e 1 12
e 2 17
e 3 4
e 3 6
e 3 10
e 4 13
e 4 15
e 4 18
e 5 8
e 5 9
e 6 8
e 6 16
e 6 19
e 7 9
e 7 11
e 7 18
e 8 11
e 8 14
e 8 15
e 8 18
e 10 14
e 11 12
e 11 14
e 14 17
e 15 16
e 16 18